db/inputs/30772170572512251611713121234412615642.smt2
(set-logic QF_FP)
(declare-const x0 (_ FloatingPoint 11 53))
(declare-const x1 (_ FloatingPoint 11 53))
(declare-const x2 (_ FloatingPoint 11 53))
(declare-const x3 (_ FloatingPoint 11 53))
(declare-const x4 (_ FloatingPoint 11 53))
(declare-const x5 (_ FloatingPoint 11 53))
(declare-const x6 (_ FloatingPoint 11 53))
(declare-const x7 (_ FloatingPoint 11 53))
(declare-const x8 (_ FloatingPoint 11 53))
(declare-const x9 (_ FloatingPoint 11 53))
(declare-const x10 (_ FloatingPoint 11 53))
(declare-const x11 (_ FloatingPoint 11 53))
(declare-const x12 (_ FloatingPoint 11 53))
(declare-const x13 (_ FloatingPoint 11 53))
(declare-const x14 (_ FloatingPoint 11 53))
(declare-const x15 (_ FloatingPoint 11 53))
(declare-const x16 (_ FloatingPoint 11 53))
(declare-const x17 (_ FloatingPoint 11 53))
(declare-const x18 (_ FloatingPoint 11 53))
(assert (fp.lt (fp.div RNE x8 x8) (fp.mul RNE x8 x4)))
(assert (fp.eq (fp.add RNE x12 x5) (fp.add RNE x7 x18)))
(assert (fp.lt (fp.mul RNE x2 x2) (fp.neg x14)))
(assert (fp.leq (fp.add RNE x8 x5) (fp.neg x0)))
(assert (fp.geq (fp.sub RNE x18 x2) (fp.mul RNE x16 x2)))
(assert (fp.geq (fp.add RNE x2 x0) (fp.add RNE x4 x15)))
(assert (fp.lt (fp.neg x14) (fp.sub RNE x2 x9)))
(assert (fp.gt (fp.add RNE x11 x3) (fp.mul RNE x9 x2)))
(assert (fp.leq (fp.add RNE x16 x8) (fp.div RNE x11 x6)))
(assert (fp.geq (fp.add RNE x2 x16) (fp.div RNE x10 x18)))
(assert (fp.lt (fp.mul RNE x11 x15) (fp.div RNE x12 x8)))
(assert (fp.gt (fp.div RNE x14 x17) (fp.div RNE x13 x12)))
(assert (fp.leq (fp.add RNE x12 x18) (fp.neg x6)))
(assert (fp.lt (fp.sub RNE x5 x12) (fp.div RNE x3 x13)))
(assert (fp.gt (fp.neg x6) (fp.mul RNE x12 x14)))
(assert (fp.lt (fp.sub RNE x8 x0) (fp.neg x17)))
(assert (fp.leq (fp.sub RNE x12 x9) (fp.sub RNE x7 x10)))
(assert (fp.geq (fp.mul RNE x14 x9) (fp.add RNE x9 x1)))
(check-sat)
