db/data/30772170572512251611713121234412615642.z3.out
-------------------
2500.097739746
